300
300 300
1 240 903
2 240 66
3 239 612
4 238 175
5 238 254
6 235 293
7 234 877
8 234 49
9 234 652
10 234 397
11 234 686
12 233 942
13 233 670
14 232 326
15 232 977
16 232 121
17 232 879
18 231 908
19 230 355
20 230 180
21 229 157
22 228 843
23 228 674
24 228 391
25 227 766
26 227 801
27 227 53
28 225 524
29 225 101
30 225 244
31 225 849
32 225 229
33 224 192
34 223 972
35 223 94
36 223 117
37 222 473
38 221 705
39 221 652
40 220 774
41 220 530
42 218 885
43 218 198
44 217 560
45 217 656
46 214 798
47 214 323
48 214 997
49 213 341
50 213 948
51 213 300
52 213 959
53 211 595
54 211 65
55 211 985
56 211 755
57 209 994
58 208 483
59 208 157
60 207 197
61 207 359
62 205 970
63 204 175
64 203 787
65 203 454
66 203 905
67 203 516
68 202 341
69 202 349
70 201 263
71 201 971
72 200 776
73 199 818
74 199 723
75 199 745
76 198 45
77 197 590
78 197 595
79 197 262
80 196 372
81 195 407
82 195 905
83 195 201
84 194 158
85 194 61
86 193 358
87 192 526
88 192 568
89 191 943
90 191 800
91 191 972
92 190 229
93 187 876
94 187 501
95 183 907
96 183 676
97 183 806
98 182 597
99 179 987
100 179 771
101 178 531
102 178 120
103 177 484
104 176 666
105 174 79
106 173 429
107 172 283
108 172 992
109 172 867
110 171 87
111 171 774
112 169 487
113 168 942
114 168 838
115 167 75
116 167 765
117 164 575
118 163 904
119 161 221
120 161 652
121 160 641
122 160 605
123 159 841
124 159 127
125 158 476
126 158 576
127 158 748
128 158 562
129 158 896
130 156 379
131 155 139
132 155 151
133 153 69
134 152 92
135 152 326
136 151 155
137 151 328
138 151 232
139 150 712
140 149 748
141 148 410
142 147 870
143 147 595
144 147 212
145 145 67
146 144 933
147 144 947
148 142 890
149 142 35
150 140 173
151 139 715
152 138 855
153 138 398
154 137 63
155 137 245
156 136 777
157 136 659
158 136 102
159 136 949
160 134 727
161 131 440
162 130 110
163 129 208
164 128 165
165 128 593
166 128 480
167 128 834
168 125 353
169 123 291
170 122 320
171 122 943
172 121 20
173 120 154
174 120 246
175 120 22
176 118 909
177 116 207
178 115 318
179 112 933
180 111 684
181 110 224
182 110 178
183 109 43
184 108 747
185 108 58
186 107 638
187 107 376
188 107 749
189 106 103
190 106 488
191 104 967
192 103 746
193 101 731
194 101 373
195 101 95
196 100 454
197 99 820
198 99 565
199 98 804
200 98 678
201 97 942
202 96 40
203 96 318
204 95 535
205 94 276
206 93 589
207 93 916
208 93 404
209 92 526
210 91 882
211 89 972
212 87 737
213 87 342
214 87 847
215 86 503
216 86 555
217 86 91
218 85 44
219 85 44
220 84 66
221 84 195
222 83 234
223 82 483
224 82 167
225 80 255
226 79 718
227 77 450
228 77 406
229 76 415
230 75 674
231 75 27
232 74 408
233 74 656
234 74 972
235 73 376
236 72 400
237 72 253
238 72 495
239 71 298
240 70 560
241 69 844
242 69 69
243 68 740
244 68 705
245 67 125
246 67 646
247 67 641
248 67 101
249 66 714
250 65 655
251 65 487
252 64 394
253 64 756
254 63 79
255 63 656
256 61 282
257 61 570
258 60 627
259 60 16
260 59 360
261 59 742
262 59 222
263 58 956
264 58 374
265 57 714
266 56 100
267 55 869
268 54 936
269 53 181
270 53 686
271 53 526
272 52 428
273 51 128
274 48 768
275 47 891
276 47 660
277 47 473
278 46 718
279 45 641
280 44 429
281 44 243
282 44 191
283 43 11
284 42 780
285 42 927
286 41 844
287 38 522
288 36 987
289 36 259
290 35 357
291 35 841
292 34 750
293 33 320
294 32 333
295 32 902
296 31 1
297 31 758
298 30 719
299 30 756
300 30 310
